20 60
1 10
1 16
1 17
2 6
2 8
2 9
2 16
2 17
2 18
3 5
3 7
3 14
3 17
4 5
4 6
4 7
4 12
4 13
4 14
4 19
5 6
5 11
5 12
5 16
6 7
6 9
6 10
7 14
7 18
7 20
8 9
8 10
8 14
8 17
9 14
9 15
9 18
9 20
10 11
10 13
10 15
10 18
11 13
11 14
11 18
11 20
12 13
12 15
12 17
12 18
13 16
13 19
14 15
14 19
15 17
15 19
16 17
16 19
17 19
18 19
